webassembly/ejemplos_dzn/11/folder11_json_14.dzn
TERM = { '.', 's(2)', 's(4)', 'in_1', 'local_0', 'local_1', 's(1)', 's(0)', 's(3)', 'in_0'};
null = '.';
s = 11;
n = 8;
ndeps = 3;
max_registers_sz = 5;
NR = 2;
registers = [|'local_0', 'in_0', |'local_1', 's(3)'|];
dependencies = [|'i32.load_1', 'call[function_index(0)]_6', |'call[function_index(0)]_6', 'i32.load8_s_9', |'i32.load_5', 'call[function_index(0)]_6'|];
GET_ENUM = { GET1, GET2, GET3, GET4, GET5, GET6, GET7};
SET_ENUM = { SET1, SET2, SET3, SET4, SET5, SET6, SET7};
TEE_ENUM = { TEE1, TEE2, TEE3, TEE4, TEE5, TEE6, TEE7};
N = 6;
OP = { 'i32.sub_0', 'call[function_index(0)]_6', 'i32.load_1', 'i32.load_5', 'i32.const_0', 'i32.load8_s_9' };
in_ops = [2, 0, 1, 1, 0, 1 ];
out_ops = [1, 0, 1, 1, 1, 1 ];
in1 = ['s(0)', '.', 'in_0', 's(1)', '.', 's(4)' ];
in2 = ['in_1', '.', '.', '.', '.', '.' ];
in3 = ['.', '.', '.', '.', '.', '.' ];
out1 = ['s(1)', '.', 's(0)', 's(2)', 's(4)', 's(3)' ];
out2 = ['.', '.', '.', '.', '.', '.' ];
out3 = ['.', '.', '.', '.', '.', '.' ];
comm = [false, false, false, false, false, false ];
gas = [1, 1, 1, 1, 1, 1 ];
sz = [1, 1, 1, 1, 1, 1 ];
stor = [false, true, false, false, false, false ];
lb = [ 1, 1, 1, 1, 1, 1 ];
ub = [ 11, 11, 11, 11, 11, 11 ];
startstack = [ 'in_0', 'in_1', null, null, null, null, null, null ];
endstack = [ 's(1)', 's(2)', null, null, null, null, null, null ];
